words_hard_train/3699.qaiger
aag 127 16 0 1 111
2
4
8
16
32
44
60
72
90
104
122
136
182
196
218
220
254
6 2 4
10 4 8
12 5 9
14 11 13
18 2 16
20 3 17
22 19 21
24 14 23
26 7 25
28 15 22
30 27 29
34 19 33
36 18 32
38 20 33
40 37 39
42 35 40
46 13 44
48 12 45
50 47 49
52 43 50
54 31 53
56 42 51
58 55 57
62 40 61
64 36 60
66 38 61
68 65 67
70 63 68
74 49 72
76 48 73
78 75 77
80 70 79
82 71 78
84 81 83
86 58 84
88 87 83
92 68 91
94 67 90
96 66 91
98 95 97
100 69 99
102 93 101
106 77 104
108 76 105
110 107 109
112 102 111
114 103 110
116 113 115
118 89 116
120 119 115
124 97 122
126 96 123
128 125 127
130 101 128
132 100 129
134 131 133
138 109 136
140 108 137
142 139 141
144 134 143
146 135 142
148 145 147
150 120 149
152 88 117
154 153 119
156 151 155
158 121 148
160 156 159
162 26 57
164 3 5
166 165 29
168 59 85
170 166 169
172 87 53
174 170 172
176 162 174
178 160 176
180 159 147
184 127 182
186 126 183
188 185 187
190 188 133
192 189 132
194 191 193
198 141 196
200 140 197
202 199 201
204 194 203
206 195 202
208 205 207
210 180 209
212 181 208
214 211 213
216 178 215
222 218 221
224 219 220
226 223 225
228 226 201
230 227 200
232 229 231
234 233 187
236 232 186
238 235 237
240 238 192
242 239 193
244 241 243
246 213 207
248 245 247
250 244 246
252 249 251
254 216 252
i0 1 x2[0]
i1 2 y2[0]
i2 2 y2[1]
i3 1 x2[1]
i4 1 x2[2]
i5 2 y2[2]
i6 1 x2[3]
i7 2 y2[3]
i8 1 x2[4]
i9 2 y2[4]
i10 1 x2[5]
i11 2 y2[5]
i12 1 x2[6]
i13 2 y2[6]
i14 1 x2[7]
i15 2 y2[7]
o0 bool[0]
c
simplified
  ==
    subtract
      subtract
        invert
          1
        1 x2
      2 y2
    47
