words_hard_train/3699.qaiger.qdimacs
p cnf 127 334
a 1 8 45 109 16 91 61 30 0
e 2 3 4 5 6 7 9 10 11 12 13 14 15 17 18 19 20 21 22 23 24 25 26 27 28 29 31 32 33 34 35 36 37 38 39 40 41 42 43 44 46 47 48 49 50 51 52 53 54 55 56 57 58 59 60 62 63 64 65 66 67 68 69 70 71 72 73 74 75 76 77 78 79 80 81 82 83 84 85 86 87 88 89 90 92 93 94 95 96 97 98 99 100 101 102 103 104 105 106 107 108 110 111 112 113 114 115 116 117 118 119 120 121 122 123 124 125 126 127 0
-1 -2 3 0
1 -3 0
2 -3 0
-2 -4 5 0
2 -5 0
4 -5 0
2 4 6 0
-2 -6 0
-4 -6 0
5 6 7 0
-5 -7 0
-6 -7 0
-1 -8 9 0
1 -9 0
8 -9 0
1 8 10 0
-1 -10 0
-8 -10 0
9 10 11 0
-9 -11 0
-10 -11 0
-7 11 12 0
7 -12 0
-11 -12 0
3 12 13 0
-3 -13 0
-12 -13 0
7 -11 14 0
-7 -14 0
11 -14 0
13 14 15 0
-13 -15 0
-14 -15 0
9 16 17 0
-9 -17 0
-16 -17 0
-9 -16 18 0
9 -18 0
16 -18 0
-10 16 19 0
10 -19 0
-16 -19 0
18 19 20 0
-18 -20 0
-19 -20 0
17 -20 21 0
-17 -21 0
20 -21 0
6 -22 23 0
-6 -23 0
22 -23 0
-6 22 24 0
6 -24 0
-22 -24 0
23 24 25 0
-23 -25 0
-24 -25 0
21 -25 26 0
-21 -26 0
25 -26 0
15 26 27 0
-15 -27 0
-26 -27 0
-21 25 28 0
21 -28 0
-25 -28 0
27 28 29 0
-27 -29 0
-28 -29 0
-20 30 31 0
20 -31 0
-30 -31 0
-18 -30 32 0
18 -32 0
30 -32 0
-19 30 33 0
19 -33 0
-30 -33 0
32 33 34 0
-32 -34 0
-33 -34 0
31 -34 35 0
-31 -35 0
34 -35 0
24 -36 37 0
-24 -37 0
36 -37 0
-24 36 38 0
24 -38 0
-36 -38 0
37 38 39 0
-37 -39 0
-38 -39 0
-35 39 40 0
35 -40 0
-39 -40 0
35 -39 41 0
-35 -41 0
39 -41 0
40 41 42 0
-40 -42 0
-41 -42 0
-29 -42 43 0
29 -43 0
42 -43 0
43 41 44 0
-43 -44 0
-41 -44 0
-34 45 46 0
34 -46 0
-45 -46 0
33 -45 47 0
-33 -47 0
45 -47 0
-33 45 48 0
33 -48 0
-45 -48 0
47 48 49 0
-47 -49 0
-48 -49 0
34 49 50 0
-34 -50 0
-49 -50 0
46 50 51 0
-46 -51 0
-50 -51 0
38 -52 53 0
-38 -53 0
52 -53 0
-38 52 54 0
38 -54 0
-52 -54 0
53 54 55 0
-53 -55 0
-54 -55 0
-51 55 56 0
51 -56 0
-55 -56 0
51 -55 57 0
-51 -57 0
55 -57 0
56 57 58 0
-56 -58 0
-57 -58 0
44 -58 59 0
-44 -59 0
58 -59 0
59 57 60 0
-59 -60 0
-57 -60 0
48 -61 62 0
-48 -62 0
61 -62 0
-48 61 63 0
48 -63 0
-61 -63 0
62 63 64 0
-62 -64 0
-63 -64 0
50 -64 65 0
-50 -65 0
64 -65 0
-50 64 66 0
50 -66 0
-64 -66 0
65 66 67 0
-65 -67 0
-66 -67 0
54 -68 69 0
-54 -69 0
68 -69 0
-54 68 70 0
54 -70 0
-68 -70 0
69 70 71 0
-69 -71 0
-70 -71 0
-67 71 72 0
67 -72 0
-71 -72 0
67 -71 73 0
-67 -73 0
71 -73 0
72 73 74 0
-72 -74 0
-73 -74 0
-60 74 75 0
60 -75 0
-74 -75 0
-44 58 76 0
44 -76 0
-58 -76 0
76 59 77 0
-76 -77 0
-59 -77 0
75 77 78 0
-75 -78 0
-77 -78 0
60 -74 79 0
-60 -79 0
74 -79 0
-78 79 80 0
78 -80 0
-79 -80 0
-13 28 81 0
13 -81 0
-28 -81 0
1 2 82 0
-1 -82 0
-2 -82 0
82 14 83 0
-82 -83 0
-14 -83 0
29 42 84 0
-29 -84 0
-42 -84 0
-83 84 85 0
83 -85 0
-84 -85 0
43 26 86 0
-43 -86 0
-26 -86 0
-85 -86 87 0
85 -87 0
86 -87 0
-81 -87 88 0
81 -88 0
87 -88 0
-80 -88 89 0
80 -89 0
88 -89 0
79 73 90 0
-79 -90 0
-73 -90 0
63 -91 92 0
-63 -92 0
91 -92 0
-63 91 93 0
63 -93 0
-91 -93 0
92 93 94 0
-92 -94 0
-93 -94 0
-94 66 95 0
94 -95 0
-66 -95 0
94 -66 96 0
-94 -96 0
66 -96 0
95 96 97 0
-95 -97 0
-96 -97 0
70 -98 99 0
-70 -99 0
98 -99 0
-70 98 100 0
70 -100 0
-98 -100 0
99 100 101 0
-99 -101 0
-100 -101 0
-97 101 102 0
97 -102 0
-101 -102 0
97 -101 103 0
-97 -103 0
101 -103 0
102 103 104 0
-102 -104 0
-103 -104 0
-90 104 105 0
90 -105 0
-104 -105 0
90 -104 106 0
-90 -106 0
104 -106 0
105 106 107 0
-105 -107 0
-106 -107 0
-89 107 108 0
89 -108 0
-107 -108 0
-109 110 111 0
109 -111 0
-110 -111 0
109 -110 112 0
-109 -112 0
110 -112 0
111 112 113 0
-111 -113 0
-112 -113 0
-113 100 114 0
113 -114 0
-100 -114 0
113 -100 115 0
-113 -115 0
100 -115 0
114 115 116 0
-114 -116 0
-115 -116 0
116 93 117 0
-116 -117 0
-93 -117 0
-116 -93 118 0
116 -118 0
93 -118 0
117 118 119 0
-117 -119 0
-118 -119 0
-119 -96 120 0
119 -120 0
96 -120 0
119 96 121 0
-119 -121 0
-96 -121 0
120 121 122 0
-120 -122 0
-121 -122 0
106 103 123 0
-106 -123 0
-103 -123 0
122 123 124 0
-122 -124 0
-123 -124 0
-122 -123 125 0
122 -125 0
123 -125 0
124 125 126 0
-124 -126 0
-125 -126 0
-108 -126 127 0
108 -127 0
126 -127 0
127 0
